173
0 104 94 79 109 148 57 154 133 101 
147 81 15 34 90 24 75 26 91 35 
33 3 30 51 82 74 1 18 52 137 
62 78 93 100 37 5 80 167 146 87 
53 134 140 68 70 127 46 56 12 60 
119 143 125 86 49 32 145 8 128 73 
2 132 42 114 10 168 13 122 170 139 
7 171 169 156 16 83 77 117 123 115 
40 9 54 89 59 22 112 50 31 71 
47 19 64 164 14 172 45 39 165 159 
85 21 84 105 11 120 25 118 107 121 
98 36 141 66 150 6 149 20 160 23 
144 63 161 103 69 126 110 157 166 102 
99 142 58 124 131 135 129 67 72 65 
111 113 158 163 28 106 27 162 96 61 
29 38 43 151 76 97 48 41 95 17 
152 136 4 116 92 130 108 44 88 153 
155 55 138 
